
Gurobi 6.5.2 (win64) logging started 07/23/16 02:37:06


Gurobi 6.5.2 (win64) logging started 07/23/16 02:37:06

Optimize a model with 7021 rows, 509 columns and 15049 nonzeros
Coefficient statistics:
  Matrix range    [1e+00, 5e+01]
  Objective range [7e+00, 5e+01]
  Bounds range    [1e+00, 1e+00]
  RHS range       [1e+00, 4e+02]
Presolve removed 6929 rows and 141 columns
Presolve time: 0.01s
Presolved: 92 rows, 368 columns, 1446 nonzeros
Variable types: 0 continuous, 368 integer (368 binary)

Root relaxation: objective 4.320000e+02, 87 iterations, 0.00 seconds

    Nodes    |    Current Node    |     Objective Bounds      |     Work
 Expl Unexpl |  Obj  Depth IntInf | Incumbent    BestBd   Gap | It/Node Time

*    0     0               0     432.0000000  432.00000  0.00%     -    0s

Explored 0 nodes (87 simplex iterations) in 0.02 seconds
Thread count was 8 (of 8 available processors)

Optimal solution found (tolerance 1.00e-04)
Best objective 4.320000000000e+02, best bound 4.320000000000e+02, gap 0.0%

Wrote requested result file 'H2\instance8\\Results8SG_Sol5.lp'

